2 100 527 85
0 40.0 50.0 0.0 0.0 0 240
2 25.0 85.0 10.0 20.0 49 191 1 5
3 22.0 75.0 10.0 30.0 30 168 2 5
4 22.0 85.0 10.0 10.0 95 152 3 5
5 20.0 80.0 10.0 40.0 69 193 4 5
6 20.0 85.0 10.0 20.0 40 189 5 5
7 18.0 75.0 10.0 20.0 60 159 6 10
8 15.0 75.0 10.0 20.0 54 133 7 10
9 15.0 80.0 10.0 10.0 67 144 8 10
10 10.0 35.0 10.0 20.0 57 154 9 10
11 10.0 40.0 10.0 30.0 106 161 10 10
12 8.0 40.0 10.0 40.0 33 152 11 15
13 8.0 45.0 10.0 20.0 32 148 12 15
14 5.0 35.0 10.0 10.0 53 191 13 15
15 5.0 45.0 10.0 10.0 35 194 14 15
16 2.0 40.0 10.0 20.0 39 163 15 15
17 0.0 40.0 10.0 20.0 41 141 16 5
18 0.0 45.0 10.0 20.0 51 189 17 5
19 44.0 5.0 10.0 20.0 73 130 18 5
20 42.0 10.0 10.0 40.0 40 148 19 5
21 42.0 15.0 10.0 10.0 94 179 20 5
22 40.0 5.0 10.0 10.0 45 161 21 10
23 40.0 15.0 10.0 40.0 64 149 22 10
24 38.0 5.0 10.0 30.0 45 164 23 10
25 38.0 15.0 10.0 10.0 51 194 24 10
26 35.0 5.0 10.0 20.0 45 183 25 10
27 95.0 30.0 10.0 30.0 90 169 26 15
28 95.0 35.0 10.0 20.0 57 172 27 15
29 92.0 30.0 10.0 10.0 55 174 28 15
30 90.0 35.0 10.0 10.0 52 174 29 15
31 88.0 30.0 10.0 10.0 52 147 30 15
32 88.0 35.0 10.0 20.0 50 172 31 5
33 87.0 30.0 10.0 10.0 61 178 32 5
34 85.0 25.0 10.0 10.0 51 178 33 5
35 85.0 35.0 10.0 30.0 83 168 34 5
36 67.0 85.0 10.0 20.0 57 185 35 5
37 65.0 85.0 10.0 40.0 43 186 36 10
38 65.0 82.0 10.0 10.0 95 182 37 10
39 62.0 80.0 10.0 30.0 38 141 38 10
40 60.0 80.0 10.0 10.0 36 193 39 10
41 60.0 85.0 10.0 30.0 61 138 40 10
42 58.0 75.0 10.0 20.0 49 164 41 15
43 55.0 80.0 10.0 10.0 33 180 42 15
44 55.0 85.0 10.0 20.0 100 185 43 15
45 55.0 82.0 10.0 10.0 35 142 44 15
46 20.0 82.0 10.0 10.0 37 192 45 15
47 18.0 80.0 10.0 10.0 71 184 46 5
48 2.0 45.0 10.0 10.0 38 191 47 5
49 42.0 5.0 10.0 10.0 50 184 48 5
50 42.0 12.0 10.0 10.0 99 138 49 5
51 72.0 35.0 10.0 30.0 83 178 50 5
52 55.0 20.0 10.0 19.0 45 150 51 10
53 25.0 30.0 10.0 3.0 25 150 52 10
54 20.0 50.0 10.0 5.0 68 143 53 10
55 55.0 60.0 10.0 16.0 107 200 54 10
56 30.0 60.0 10.0 16.0 95 214 55 10
57 50.0 35.0 10.0 19.0 91 198 56 15
58 30.0 25.0 10.0 23.0 56 165 57 15
59 15.0 10.0 10.0 20.0 51 182 58 15
60 10.0 20.0 10.0 19.0 42 187 59 15
61 15.0 60.0 10.0 17.0 62 203 60 15
62 45.0 65.0 10.0 9.0 37 124 61 5
63 65.0 35.0 10.0 3.0 29 168 62 5
64 65.0 20.0 10.0 6.0 39 190 63 5
65 45.0 30.0 10.0 17.0 20 139 64 5
66 35.0 40.0 10.0 16.0 11 150 65 5
67 41.0 37.0 10.0 16.0 97 198 66 10
68 64.0 42.0 10.0 9.0 31 138 67 10
69 40.0 60.0 10.0 21.0 101 216 68 10
70 31.0 52.0 10.0 27.0 9 139 69 10
71 35.0 69.0 10.0 23.0 30 210 70 10
72 65.0 55.0 10.0 14.0 30 129 71 15
73 63.0 65.0 10.0 8.0 27 202 72 15
74 2.0 60.0 10.0 5.0 46 137 73 15
75 20.0 20.0 10.0 8.0 71 193 74 15
76 5.0 5.0 10.0 16.0 57 165 75 15
77 60.0 12.0 10.0 31.0 48 131 76 5
78 23.0 3.0 10.0 7.0 49 180 77 5
79 8.0 56.0 10.0 27.0 47 162 78 5
80 6.0 68.0 10.0 30.0 65 142 79 5
81 47.0 47.0 10.0 13.0 93 222 80 5
82 49.0 58.0 10.0 10.0 78 123 81 10
83 27.0 43.0 10.0 9.0 14 140 82 10
84 37.0 31.0 10.0 14.0 19 172 83 10
85 57.0 29.0 10.0 18.0 73 148 84 10
86 63.0 23.0 10.0 2.0 59 144 85 10
87 21.0 24.0 10.0 28.0 63 140 86 15
88 12.0 24.0 10.0 13.0 91 118 87 15
89 24.0 58.0 10.0 19.0 27 136 88 15
90 67.0 5.0 10.0 25.0 52 177 89 15
91 37.0 47.0 10.0 6.0 53 148 90 15
92 49.0 42.0 10.0 13.0 89 217 91 5
93 53.0 43.0 10.0 14.0 14 177 92 5
94 61.0 52.0 10.0 3.0 50 208 93 5
95 57.0 48.0 10.0 23.0 76 143 94 5
96 56.0 37.0 10.0 6.0 20 159 95 5
97 55.0 54.0 10.0 26.0 105 188 96 10
98 4.0 18.0 10.0 35.0 104 165 97 10
99 26.0 52.0 10.0 9.0 14 136 98 10
100 26.0 35.0 10.0 15.0 42 141 99 10
101 31.0 67.0 10.0 3.0 43 210 100 10